20 10
87 79 85 44 6 14 2 72 83 98
98 70 92 68 4 39 9 64 87 94
95 74 93 61 6 23 2 26 78 96
94 50 97 54 3 32 5 58 60 94
90 80 94 49 7 33 7 44 83 94
96 68 83 58 6 25 5 51 87 99
98 59 91 50 6 12 2 40 88 97
97 64 93 64 4 22 7 63 87 94
97 74 91 74 3 11 4 45 88 98
92 65 90 86 2 25 4 68 69 98
96 58 94 70 5 28 4 22 88 98
95 79 75 64 3 10 5 59 86 96
91 68 80 64 8 13 3 54 89 92
95 62 96 68 3 25 5 59 81 92
97 71 94 58 3 34 4 43 81 97
98 83 91 54 3 14 6 50 88 98
98 71 94 49 8 36 3 56 88 92
97 76 94 76 19 18 2 48 80 98
98 72 88 54 14 21 3 27 83 96
98 90 95 66 3 18 2 43 80 97
